minutes = 30;

valves = {AA, BB, CC, DD, EE, FF, GG, HH, II, JJ};

rates = [0, 13, 2, 20, 3, 0, 0, 22, 0, 21]; 

connections = [
  {DD, II, BB},
  {CC, AA},
  {DD, BB},
  {CC, AA, EE},
  {FF, DD},
  {EE, GG},
  {FF, HH},
  {GG},
  {AA, JJ},
  {II}
];


